c Sudoku solution
p cnf 729 0
159 0
229 0
238 0
241 0
287 0
294 0
315 0
331 0
352 0
376 0
437 0
489 0
399 0
544 0
553 0
585 0
645 0
425 0
651 0
697 0
567 0
669 0
762 0
442 0
819 0
539 0
888 0
383 0
918 0
935 0
982 0
181 0
991 0
861 0
324 0
164 0
368 0
347 0
748 0
949 0
779 0
458 0
466 0
493 0
265 0
143 0
256 0
213 0
272 0
846 0
963 0
926 0
592 0
686 0
516 0
136 0
873 0
895 0
796 0
784 0
977 0
733 0
834 0
822 0
755 0
857 0
954 0
127 0
112 0
614 0
411 0
528 0
474 0
571 0
678 0
717 0
721 0
623 0
632 0
175 0
198 0
